\Generated by Cardinal Operations

Maximize
   1479.64 x_('B','A')12:25_f + 470.28 x_('B','A')12:25_l 
   + 1510.9 x_('C','B')14:15_f + 496.51 x_('C','B')14:15_l 
   + 1462.84 x_('B','A')20:25_f + 423.5 x_('B','A')20:25_l 
Subject To
 capacity_constraint_('B','A')12:25: 1.2 x_('B','A')12:25_f 
   + x_('B','A')12:25_l <= 187
 balance_constraint_('B','A')12:25: 3.7 x_('B','A')12:25_0 
   + 0.9 x_('B','A')12:25_f + 0.9 x_('B','A')12:25_l <= 127.15
 scale_constraint_('B','A')12:25_f: 3.079 x_('B','A')12:25_0 
   - 2 x_('B','A')12:25_f >= 0
 scale_constraint_('B','A')12:25_l: 1.652 x_('B','A')12:25_0 
   - 2 x_('B','A')12:25_l >= 0
 capacity_constraint_('C','B')14:15: 1.2 x_('C','B')14:15_f 
   + x_('C','B')14:15_l <= 187
 balance_constraint_('C','B')14:15: 1.72 x_('C','B')14:15_0 
   + 0.97 x_('C','B')14:15_f + 0.97 x_('C','B')14:15_l <= 39.64
 scale_constraint_('C','B')14:15_f: 2.826 x_('C','B')14:15_0 
   - 1.2 x_('C','B')14:15_f >= 0
 scale_constraint_('C','B')14:15_l: 1.475 x_('C','B')14:15_0 
   - 1.2 x_('C','B')14:15_l >= 0
 capacity_constraint_('B','A')20:25: 1.2 x_('B','A')20:25_f 
   + x_('B','A')20:25_l <= 187
 balance_constraint_('B','A')20:25: 3.7 x_('B','A')20:25_0 
   + 0.9 x_('B','A')20:25_f + 0.9 x_('B','A')20:25_l <= 181.08
 scale_constraint_('B','A')20:25_f: 2.411 x_('B','A')20:25_0 
   - 2 x_('B','A')20:25_f >= 0
 scale_constraint_('B','A')20:25_l: 1.293 x_('B','A')20:25_0 
   - 2 x_('B','A')20:25_l >= 0
END

